data;

set PRODUITS := 
P1
P2;

set DEMANDES :=
D1
D2;

set MAGASINS :=
M1
M2
M3;

param demandesProduits: P1 P2:=
D1 2 0
D2 1 3;

param stocksProduits: P1 P2:=
M1 2 1
M2 1 2
M3 2 1;

param coutsFixes: M1 M2 M3 :=
D1 110 90 100
D2 110 90 100;

param coutsVariables: M1 M2 M3 :=
D1 10 1 5
D2 2 20 10;

param bigM:= 10000;

end;

